NAME : bier127 ->10
COMMENT : 127 Biergaerten in Augsburg (Juenger/Reinelt)
TYPE : TSP
DIMENSION : 10
EDGE_WEIGHT_TYPE : EUC_2D
NODE_COORD_SECTION
   1   9860  14152
   2   9396  14616
   3  11252  14848
   4  11020  13456
   5   9512  15776
   6  10788  13804
   7  10208  14384
   8  11600  13456
   9  11252  14036
  10  10672  15080
 EOF
